# 11266
param k := 6;
param n := 60;
param s := 1;
set E :=  (0,17) (1,48) (2,12) (2,25) (2,47) (2,52) (2,58) (3,47) (4,12) (4,16) (4,21) (5,34) (6,26) (6,36) (7,42) (7,47) (8,9) (9,38) (9,55) (10,46) (10,59) (11,29) (12,24) (13,21) (13,56) (14,30) (14,34) (15,26) (15,32) (15,35) (16,44) (17,32) (18,19) (18,41) (19,27) (20,28) (22,41) (23,49) (24,54) (27,32) (28,48) (28,53) (29,45) (30,40) (30,42) (31,46) (31,50) (33,34) (33,39) (33,51) (34,43) (37,45) (38,58) (40,49) (40,57) (41,42) (42,53) (45,59) (47,59);